
se = 80; % nombre de sessions
gr = 40; % nombre de grups de treball
cl = 12; % nombre de slots
minPapersPerSlot = 3; % minim nombre d'articles per sessio i slot
maxSesionsPar = 20; % maxim nombre de sessions paraleles

npMax = [5, 4, 5, 5, 3, 4, 3, 4, 4, 6, 4, 4]; % nombre maxim de papers per slot

np = [13, 9, 17, 3, 18, 12, 6, 3, 19, 6, 3, 3, 16, 3, 15, 3, 8, 3, 3, 13, 7, 3, 15, 10, 15, 4, 5, 5, 8, 9, 6, 3, 4, 15, 12, 13, 5, 12, 3, 9, 16, 12, 8, 16, 3, 3, 10, 5, 8, 5, 15, 3, 3, 6, 12, 3, 6, 3, 16, 8, 10, 8, 17, 13, 3, 10, 10, 16, 11, 14, 13, 15, 3, 11, 13, 11, 14, 3, 16, 3]; % nombre de papers acceptats a cada sessio

WG = [ {1}, {}, {2,3}, {4}, {5}, {6}, {}, {7,8,9}, {10}, {11}, {12,13,14}, {15}, {16,17,18}, {}, {19,20}, {21}, {22}, {}, {23}, {}, {24,25}, {}, {}, {}, {}, {26}, {27}, {28}, {}, {}, {29}, {30}, {}, {31,32,33}, {34}, {35}, {}, {}, {36}, {37}, {}, {38}, {}, {39}, {40}, {1}, {2}, {3}, {}, {4}, {5}, {6}, {}, {7}, {8}, {}, {9}, {}, {10}, {11}, {12,13,14}, {15}, {16,17}, {18}, {}, {19,20,21}, {}, {22}, {23,24,25}, {}, {26}, {27}, {28,29}, {30,31,32}, {33}, {}, {}, {34}, {35,36}, {37} ]; % grups per sessio

